15
1 0 1
2 0 1
2 1 1
3 0 2
3 1 1
3 2 2
4 0 2
4 1 2
4 3 1
5 3 2
6 0 1
6 2 1
6 5 2
7 1 2
7 3 2
7 4 1
8 1 1
8 2 1
8 5 1
8 6 2
8 7 1
9 1 2
9 2 2
9 3 1
9 4 2
9 6 2
9 8 1
10 0 1
10 3 1
10 7 2
10 9 1
11 0 2
11 1 2
11 2 1
11 4 1
11 6 1
11 7 2
12 0 2
12 1 1
12 2 2
12 3 2
12 4 1
12 7 1
12 8 2
13 0 1
13 3 1
13 4 1
13 5 1
13 7 1
13 8 2
13 12 2
14 5 1
14 6 1
14 8 2
14 9 1
14 13 1
